(set-logic ALL)
(declare-const x String)
(declare-const y String)
(assert (str.in_re x (str.to_re "ww")))
(assert (= 6 (str.len x)))
(assert (not (= x "ZZZZww")))
(assert (not (= x "ZZwwww")))
(assert (not (= x "wwZZww")))
(check-sat)
